bomb.4.tsp
NAME : GeneratedProblem
COMMENT : SVGCrosshatch
TYPE : TSP
DIMENSION : 5
EDGE_WEIGHT_TYPE : EUC_2D
NODE_COORD_SECTION
1 11200 6200
2 11700 6200
3 11800 6600
4 11800 7000
5 12000 6700
EOF
