bomb.4.out.txt
NAME : GeneratedProblem.2497.tour
COMMENT : Length = 2497
COMMENT : Found by LKH [Keld Helsgaun] Sat Nov 24 14:17:56 2018
TYPE : TOUR
DIMENSION : 5
TOUR_SECTION
1
2
3
5
4
-1
EOF
